nApps = 224
nRes = 9
nActs = 410
nNetworks = 6

assignmentToResources = [1,1,1,3,2,2,3,3,3,1,3,1,2,3,3,2,3,2,3,3,2,2,2,1,2,1,3,1,3,2,1,1,1,3,1,3,2,3,1,3,3,3,1,3,1,1,1,3,3,1,1,1,1,1,1,2,2,1,2,2,2,1,2,2,3,3,2,3,3,2,2,2,3,2,2,2,2,1,2,1,1,2,2,2,2,1,2,2,2,2,1,2,2,1,1,1,2,3,1,2,4,4,4,4,4,4,4,4,4,6,6,6,5,5,5,5,6,6,6,6,6,6,6,6,6,4,4,4,4,6,6,4,6,5,5,6,5,5,5,6,6,6,6,6,5,5,5,5,5,5,4,4,4,5,4,6,6,4,6,6,6,6,6,5,4,4,4,4,4,4,4,4,4,4,4,6,6,4,4,6,6,6,6,6,6,6,4,4,4,6,4,4,4,4,4,6,6,6,6,4,4,4,4,4,5,5,4,5,4,5,5,6,6,6,6,6,6,6,6,6,6,6,5,5,6,5,5,4,4,4,5,5,4,5,5,5,5,5,4,4,5,4,4,4,5,5,7,6,8,6,7,4,8,4,9,4,8,5,7,4,8,4,9,5,9,8,8,9,9,8,8,9,8,8,8,7,8,9,9,7,9,7,8,7,7,7,8,8,8,7,8,8,9,9,7,7,9,8,9,7,8,7,9,7,8,7,8,7,8,9,7,7,9,7,9,9,9,8,9,8,8,8,8,7,8,7,8,8,7,8,8,9,8,8,8,8,8,9,9,8,7,7,9,8,7,8,8,8,7,7,8,8,8,8,7,8,8,8,8,9,8,8,7,8,8,8,9,8,8,7,7,8,7,8,7,9,7,8,8,8,8,8,7,8,7,8,7,7,9,8,9,7,8,8,9,7,7,8,9,9,7,7,9,8,9,7,8,8,9,9];

processingTimes = [80,56,80,104,136,160,80,128,64,136,64,56,56,96,144,128,128,160,112,112,104,88,80,88,104,136,136,56,112,80,136,96,56,96,88,112,144,112,64,96,64,120,128,112,72,120,120,96,112,120,128,48,136,96,120,96,136,112,80,136,56,120,144,120,72,152,112,72,72,128,64,56,136,128,128,152,128,128,128,120,152,56,72,128,56,112,144,120,128,128,128,128,64,152,128,136,168,136,48,48,5,3,3,4,4,200,4,200,3,4,4,4,500,500,5,3,4,3,3,3,4,4,500,3,500,500,500,8,3,3,3,13,4,5,3,100,8,8,4,4,8,4,500,4,3,8,8,4,4,500,500,4,5,3,13,3,4,5,4,4,4,3,3,500,8,4,3,4,5,5,500,500,4,13,13,4,4,4,4,500,500,500,3,4,3,3,500,500,500,4,500,500,3,3,4,3,4,4,3,5,5,4,13,4,4,3,4,4,4,3,4,8,4,4,4,8,3,3,3,8,8,13,500,4,4,4,3,500,7,3,4,3,500,500,3,3,3,3,4,3,3,5,500,3,13,500,500,500,500,500,500,500,500,500,500,13,13,4,4,8,8,3,3,7,7,5,3,3,4,4,200,4,200,3,4,4,4,500,500,5,3,4,3,3,3,4,4,500,3,500,500,500,8,3,3,3,13,4,5,3,100,8,8,4,4,8,4,500,4,3,8,8,4,4,500,500,4,5,3,13,3,4,5,4,4,4,3,3,500,8,4,3,4,5,5,500,500,4,13,13,4,4,4,4,500,500,500,3,4,3,3,500,500,500,4,500,500,3,3,4,3,4,4,3,5,5,4,13,4,4,3,4,4,4,3,4,8,4,4,4,8,3,3,3,8,8,13,500,4,4,4,3,500,7,3,4,3,500,500,3,3,3,3,4,3,3,5,500,3,13];

periods = [100000,20000,2000,20000,100000,10000,100000,10000,10000,20000,20000,20000,10000,20000,100000,10000,1000,10000,10000,20000,20000,10000,100000,100000,1000,20000,100000,20000,10000,10000,20000,20000,20000,100000,20000,100000,20000,20000,10000,100000,20000,100000,50000,1000,10000,20000,100000,100000,20000,20000,20000,100000,1000,10000,2000,100000,5000,10000,10000,20000,10000,5000,20000,50000,100000,20000,10000,100000,1000,50000,10000,10000,10000,5000,10000,10000,10000,20000,10000,100000,10000,20000,20000,10000,100000,10000,20000,100000,100000,100000,20000,2000,20000,20000,100000,10000,20000,20000,100000,20000,100000,100000,20000,20000,20000,2000,2000,2000,2000,20000,20000,20000,100000,100000,10000,10000,100000,100000,100000,100000,10000,10000,10000,10000,10000,20000,20000,20000,20000,20000,20000,20000,100000,10000,10000,1000,10000,10000,10000,10000,10000,10000,20000,20000,20000,20000,10000,10000,100000,100000,100000,100000,100000,1000,20000,100000,100000,20000,10000,10000,10000,10000,10000,10000,20000,20000,20000,20000,20000,20000,20000,20000,20000,20000,20000,100000,100000,20000,20000,100000,100000,100000,100000,20000,20000,20000,50000,50000,50000,1000,10000,20000,100000,100000,100000,100000,20000,20000,20000,20000,20000,1000,10000,2000,100000,5000,10000,10000,5000,20000,20000,100000,100000,100000,20000,20000,20000,100000,100000,1000,1000,1000,50000,10000,10000,5000,10000,100000,100000,10000,20000,10000,10000,20000,100000,100000,2000,2000,20000,10000,20000,100000,100000,100000,20000,20000,20000,20000,20000,20000,20000,20000,20000,20000,20000,20000,20000,20000,20000,20000,20000,1000,1000,10000,10000,100000,100000,20000,20000,20000,2000,2000,2000,2000,20000,20000,20000,100000,100000,10000,10000,100000,100000,100000,100000,10000,10000,10000,10000,10000,20000,20000,20000,20000,20000,20000,20000,100000,10000,10000,1000,10000,10000,10000,10000,10000,10000,20000,20000,20000,20000,10000,10000,100000,100000,100000,100000,100000,1000,20000,100000,100000,20000,10000,10000,10000,10000,10000,10000,20000,20000,20000,20000,20000,20000,20000,20000,20000,20000,20000,100000,100000,20000,20000,100000,100000,100000,100000,20000,20000,20000,50000,50000,50000,1000,10000,20000,100000,100000,100000,100000,20000,20000,20000,20000,20000,1000,10000,2000,100000,5000,10000,10000,5000,20000,20000,100000,100000,100000,20000,20000,20000,100000,100000,1000,1000,1000,50000,10000,10000,5000,10000,100000,100000,10000,20000,10000,10000,20000,100000,100000,2000,2000,20000,10000,20000,100000,100000,100000,20000];

assignmentToClusters = [1,2,3,4,5,6,7,8,9,10,11,12,13,14,15,16,17,18,19,11,20,21,22,23,24,25,26,11,27,18,12,28,29,30,31,32,10,33,34,35,36,15,37,38,39,40,41,15,10,42,43,44,17,45,46,47,48,49,21,50,51,52,50,53,54,55,56,57,58,59,21,60,61,62,21,60,61,63,21,64,65,12,66,21,67,68,69,70,71,72,73,74,11,75,76,77,12,78,79,20,80,81,82,83,84,85,86,87,88,89,90,91,92,93,94,95,96,97,98,99,100,101,102,103,104,105,106,107,108,109,110,111,112,113,114,115,116,117,118,119,120,121,122,123,124,125,126,127,128,129,130,131,132,133,134,135,136,137,138,139,140,141,142,143,144,145,146,147,148,149,150,151,152,153,154,155,156,157,158,159,160,161,162,163,164,165,166,167,168,169,170,171,172,173,174,175,176,177,178,179,180,181,182,183,184,185,186,187,188,189,190,191,192,193,194,195,196,197,198,199,200,201,202,203,204,205,206,207,208,209,210,211,212,213,214,215,216,217,218,219,220,221,222,223,224,10,10,10,10,11,11,11,11,11,11,12,12,12,12,12,12,17,17,61,61,80,81,82,83,84,85,86,87,88,89,90,91,92,93,94,95,96,97,98,99,100,101,102,103,104,105,106,107,108,109,110,111,112,113,114,115,116,117,118,119,120,121,122,123,124,125,126,127,128,129,130,131,132,133,134,135,136,137,138,139,140,141,142,143,144,145,146,147,148,149,150,151,152,153,154,155,156,157,158,159,160,161,162,163,164,165,166,167,168,169,170,171,172,173,174,175,176,177,178,179,180,181,182,183,184,185,186,187,188,189,190,191,192,193,194,195,196,197,198,199,200,201,202,203,204,205,206,207,208,209,210,211,212,213,214,215,216,217,218,219,220,221,222,223,224];

precedenceAdjList = [[],[],[],[],[],[],[],[],[],[246],[],[],[],[],[47],[],[262],[],[],[254],[99],[],[],[],[],[],[],[250],[],[17],[258],[],[],[],[],[],[248],[],[],[],[],[],[],[],[],[],[],[41],[],[],[],[],[],[],[],[],[],[],[70],[],[],[],[59],[],[],[],[],[],[],[],[78,74],[75],[264],[],[83],[],[],[],[],[],[],[256],[],[21],[],[],[],[],[],[],[],[],[252],[],[],[],[260],[],[],[],[],[],[],[],[],[],[],[],[],[],[],[],[],[],[],[],[],[],[],[],[],[],[],[],[],[],[],[],[],[],[],[],[],[],[],[],[],[],[],[],[],[],[],[],[],[],[],[],[],[],[],[],[],[],[],[],[],[],[],[],[],[],[],[],[],[],[],[],[],[],[],[],[],[],[],[],[],[],[],[],[],[],[],[],[],[],[],[],[],[],[],[],[],[],[],[],[],[],[],[],[],[],[],[],[],[],[],[],[],[],[],[],[],[],[],[],[],[],[],[],[],[],[],[],[],[],[],[],[],[],[],[],[],[],[],[],[],[],[],[],[],[],[],[],[],[36],[245],[48],[247],[10],[249],[27],[251],[27],[253],[11],[255],[81],[257],[30],[259],[52],[261],[76],[263],[100],[101],[102],[103],[104],[105],[106],[107],[108],[109],[110],[111],[112],[113],[114],[115],[116],[117],[118],[119],[120],[121],[122],[123],[124],[125],[126],[127],[128],[129],[130],[131],[132],[133],[134],[135],[136],[137],[138],[139],[140],[141],[142],[143],[144],[145],[146],[147],[148],[149],[150],[151],[152],[153],[154],[155],[156],[157],[158],[159],[160],[161],[162],[163],[164],[165],[166],[167],[168],[169],[170],[171],[172],[173],[174],[175],[176],[177],[178],[179],[180],[181],[182],[183],[184],[185],[186],[187],[188],[189],[190],[191],[192],[193],[194],[195],[196],[197],[198],[199],[200],[201],[202],[203],[204],[205],[206],[207],[208],[209],[210],[211],[212],[213],[214],[215],[216],[217],[218],[219],[220],[221],[222],[223],[224],[225],[226],[227],[228],[229],[230],[231],[232],[233],[234],[235],[236],[237],[238],[239],[240],[241],[242],[243],[244]];